\Problem name: ilog.cplex

Minimize
 obj: c(0) + c(1) + c(2) + c(3) + c(4) + c(5) + c(6) + c(7) + c(8)
Subject To
 IloC0:   y(0)(0) - x(0)(0)(3) - x(0)(0)(2) - x(0)(0)(1)  = 0
 IloC1:   - c(0) + y(0)(0) <= 0
 IloC2:   y(0)(1) - x(0)(1)(3) - x(0)(1)(2) - x(0)(1)(1)  = 0
 IloC3:   - c(1) + y(0)(1) <= 0
 IloC4:   y(0)(2) - x(0)(2)(3) - x(0)(2)(2) - x(0)(2)(1)  = 0
 IloC5:   - c(2) + y(0)(2) <= 0
 IloC6:   y(0)(3) - x(0)(3)(3) - x(0)(3)(2) - x(0)(3)(1)  = 0
 IloC7:   - c(3) + y(0)(3) <= 0
 IloC8:   y(0)(4) - x(0)(4)(3) - x(0)(4)(2) - x(0)(4)(1)  = 0
 IloC9:   - c(4) + y(0)(4) <= 0
 IloC10:  y(0)(5) - x(0)(5)(3) - x(0)(5)(2) - x(0)(5)(1)  = 0
 IloC11:  - c(5) + y(0)(5) <= 0
 IloC12:  y(0)(6) - x(0)(6)(3) - x(0)(6)(2) - x(0)(6)(1)  = 0
 IloC13:  - c(6) + y(0)(6) <= 0
 IloC14:  y(0)(7) - x(0)(7)(3) - x(0)(7)(2) - x(0)(7)(1)  = 0
 IloC15:  - c(7) + y(0)(7) <= 0
 IloC16:  y(0)(8) - x(0)(8)(3) - x(0)(8)(2) - x(0)(8)(1)  = 0
 IloC17:  - c(8) + y(0)(8) <= 0
 IloC18:  y(1)(0) - x(1)(0)(3) - x(1)(0)(2) - x(1)(0)(1)  = 0
 IloC19:  - c(0) + y(1)(0) <= 0
 IloC20:  y(1)(1) - x(1)(1)(3) - x(1)(1)(2) - x(1)(1)(1)  = 0
 IloC21:  - c(1) + y(1)(1) <= 0
 IloC22:  y(1)(2) - x(1)(2)(3) - x(1)(2)(2) - x(1)(2)(1)  = 0
 IloC23:  - c(2) + y(1)(2) <= 0
 IloC24:  y(1)(3) - x(1)(3)(3) - x(1)(3)(2) - x(1)(3)(1)  = 0
 IloC25:  - c(3) + y(1)(3) <= 0
 IloC26:  y(1)(4) - x(1)(4)(3) - x(1)(4)(2) - x(1)(4)(1)  = 0
 IloC27:  - c(4) + y(1)(4) <= 0
 IloC28:  y(1)(5) - x(1)(5)(3) - x(1)(5)(2) - x(1)(5)(1)  = 0
 IloC29:  - c(5) + y(1)(5) <= 0
 IloC30:  y(1)(6) - x(1)(6)(3) - x(1)(6)(2) - x(1)(6)(1)  = 0
 IloC31:  - c(6) + y(1)(6) <= 0
 IloC32:  y(1)(7) - x(1)(7)(3) - x(1)(7)(2) - x(1)(7)(1)  = 0
 IloC33:  - c(7) + y(1)(7) <= 0
 IloC34:  y(1)(8) - x(1)(8)(3) - x(1)(8)(2) - x(1)(8)(1)  = 0
 IloC35:  - c(8) + y(1)(8) <= 0
 IloC36:  y(2)(0) - x(2)(0)(3) - x(2)(0)(2) - x(2)(0)(1)  = 0
 IloC37:  - c(0) + y(2)(0) <= 0
 IloC38:  y(2)(1) - x(2)(1)(3) - x(2)(1)(2) - x(2)(1)(1)  = 0
 IloC39:  - c(1) + y(2)(1) <= 0
 IloC40:  y(2)(2) - x(2)(2)(3) - x(2)(2)(2) - x(2)(2)(1)  = 0
 IloC41:  - c(2) + y(2)(2) <= 0
 IloC42:  y(2)(3) - x(2)(3)(3) - x(2)(3)(2) - x(2)(3)(1)  = 0
 IloC43:  - c(3) + y(2)(3) <= 0
 IloC44:  y(2)(4) - x(2)(4)(3) - x(2)(4)(2) - x(2)(4)(1)  = 0
 IloC45:  - c(4) + y(2)(4) <= 0
 IloC46:  y(2)(5) - x(2)(5)(3) - x(2)(5)(2) - x(2)(5)(1)  = 0
 IloC47:  - c(5) + y(2)(5) <= 0
 IloC48:  y(2)(6) - x(2)(6)(3) - x(2)(6)(2) - x(2)(6)(1)  = 0
 IloC49:  - c(6) + y(2)(6) <= 0
 IloC50:  y(2)(7) - x(2)(7)(3) - x(2)(7)(2) - x(2)(7)(1)  = 0
 IloC51:  - c(7) + y(2)(7) <= 0
 IloC52:  y(2)(8) - x(2)(8)(3) - x(2)(8)(2) - x(2)(8)(1)  = 0
 IloC53:  - c(8) + y(2)(8) <= 0
 IloC54:  y(3)(0) - x(3)(0)(3) - x(3)(0)(2) - x(3)(0)(1)  = 0
 IloC55:  - c(0) + y(3)(0) <= 0
 IloC56:  y(3)(1) - x(3)(1)(3) - x(3)(1)(2) - x(3)(1)(1)  = 0
 IloC57:  - c(1) + y(3)(1) <= 0
 IloC58:  y(3)(2) - x(3)(2)(3) - x(3)(2)(2) - x(3)(2)(1)  = 0
 IloC59:  - c(2) + y(3)(2) <= 0
 IloC60:  y(3)(3) - x(3)(3)(3) - x(3)(3)(2) - x(3)(3)(1)  = 0
 IloC61:  - c(3) + y(3)(3) <= 0
 IloC62:  y(3)(4) - x(3)(4)(3) - x(3)(4)(2) - x(3)(4)(1)  = 0
 IloC63:  - c(4) + y(3)(4) <= 0
 IloC64:  y(3)(5) - x(3)(5)(3) - x(3)(5)(2) - x(3)(5)(1)  = 0
 IloC65:  - c(5) + y(3)(5) <= 0
 IloC66:  y(3)(6) - x(3)(6)(3) - x(3)(6)(2) - x(3)(6)(1)  = 0
 IloC67:  - c(6) + y(3)(6) <= 0
 IloC68:  y(3)(7) - x(3)(7)(3) - x(3)(7)(2) - x(3)(7)(1)  = 0
 IloC69:  - c(7) + y(3)(7) <= 0
 IloC70:  y(3)(8) - x(3)(8)(3) - x(3)(8)(2) - x(3)(8)(1)  = 0
 IloC71:  - c(8) + y(3)(8) <= 0
 IloC72:  y(4)(0) - x(4)(0)(3) - x(4)(0)(2) - x(4)(0)(1)  = 0
 IloC73:  - c(0) + y(4)(0) <= 0
 IloC74:  y(4)(1) - x(4)(1)(3) - x(4)(1)(2) - x(4)(1)(1)  = 0
 IloC75:  - c(1) + y(4)(1) <= 0
 IloC76:  y(4)(2) - x(4)(2)(3) - x(4)(2)(2) - x(4)(2)(1)  = 0
 IloC77:  - c(2) + y(4)(2) <= 0
 IloC78:  y(4)(3) - x(4)(3)(3) - x(4)(3)(2) - x(4)(3)(1)  = 0
 IloC79:  - c(3) + y(4)(3) <= 0
 IloC80:  y(4)(4) - x(4)(4)(3) - x(4)(4)(2) - x(4)(4)(1)  = 0
 IloC81:  - c(4) + y(4)(4) <= 0
 IloC82:  y(4)(5) - x(4)(5)(3) - x(4)(5)(2) - x(4)(5)(1)  = 0
 IloC83:  - c(5) + y(4)(5) <= 0
 IloC84:  y(4)(6) - x(4)(6)(3) - x(4)(6)(2) - x(4)(6)(1)  = 0
 IloC85:  - c(6) + y(4)(6) <= 0
 IloC86:  y(4)(7) - x(4)(7)(3) - x(4)(7)(2) - x(4)(7)(1)  = 0
 IloC87:  - c(7) + y(4)(7) <= 0
 IloC88:  y(4)(8) - x(4)(8)(3) - x(4)(8)(2) - x(4)(8)(1)  = 0
 IloC89:  - c(8) + y(4)(8) <= 0
 IloC90:  y(5)(0) - x(5)(0)(3) - x(5)(0)(2) - x(5)(0)(1)  = 0
 IloC91:  - c(0) + y(5)(0) <= 0
 IloC92:  y(5)(1) - x(5)(1)(3) - x(5)(1)(2) - x(5)(1)(1)  = 0
 IloC93:  - c(1) + y(5)(1) <= 0
 IloC94:  y(5)(2) - x(5)(2)(3) - x(5)(2)(2) - x(5)(2)(1)  = 0
 IloC95:  - c(2) + y(5)(2) <= 0
 IloC96:  y(5)(3) - x(5)(3)(3) - x(5)(3)(2) - x(5)(3)(1)  = 0
 IloC97:  - c(3) + y(5)(3) <= 0
 IloC98:  y(5)(4) - x(5)(4)(3) - x(5)(4)(2) - x(5)(4)(1)  = 0
 IloC99:  - c(4) + y(5)(4) <= 0
 IloC100: y(5)(5) - x(5)(5)(3) - x(5)(5)(2) - x(5)(5)(1)  = 0
 IloC101: - c(5) + y(5)(5) <= 0
 IloC102: y(5)(6) - x(5)(6)(3) - x(5)(6)(2) - x(5)(6)(1)  = 0
 IloC103: - c(6) + y(5)(6) <= 0
 IloC104: y(5)(7) - x(5)(7)(3) - x(5)(7)(2) - x(5)(7)(1)  = 0
 IloC105: - c(7) + y(5)(7) <= 0
 IloC106: y(5)(8) - x(5)(8)(3) - x(5)(8)(2) - x(5)(8)(1)  = 0
 IloC107: - c(8) + y(5)(8) <= 0
 IloC108: y(6)(0) - x(6)(0)(3) - x(6)(0)(2) - x(6)(0)(1)  = 0
 IloC109: - c(0) + y(6)(0) <= 0
 IloC110: y(6)(1) - x(6)(1)(3) - x(6)(1)(2) - x(6)(1)(1)  = 0
 IloC111: - c(1) + y(6)(1) <= 0
 IloC112: y(6)(2) - x(6)(2)(3) - x(6)(2)(2) - x(6)(2)(1)  = 0
 IloC113: - c(2) + y(6)(2) <= 0
 IloC114: y(6)(3) - x(6)(3)(3) - x(6)(3)(2) - x(6)(3)(1)  = 0
 IloC115: - c(3) + y(6)(3) <= 0
 IloC116: y(6)(4) - x(6)(4)(3) - x(6)(4)(2) - x(6)(4)(1)  = 0
 IloC117: - c(4) + y(6)(4) <= 0
 IloC118: y(6)(5) - x(6)(5)(3) - x(6)(5)(2) - x(6)(5)(1)  = 0
 IloC119: - c(5) + y(6)(5) <= 0
 IloC120: y(6)(6) - x(6)(6)(3) - x(6)(6)(2) - x(6)(6)(1)  = 0
 IloC121: - c(6) + y(6)(6) <= 0
 IloC122: y(6)(7) - x(6)(7)(3) - x(6)(7)(2) - x(6)(7)(1)  = 0
 IloC123: - c(7) + y(6)(7) <= 0
 IloC124: y(6)(8) - x(6)(8)(3) - x(6)(8)(2) - x(6)(8)(1)  = 0
 IloC125: - c(8) + y(6)(8) <= 0
 IloC126: y(7)(0) - x(7)(0)(3) - x(7)(0)(2) - x(7)(0)(1)  = 0
 IloC127: - c(0) + y(7)(0) <= 0
 IloC128: y(7)(1) - x(7)(1)(3) - x(7)(1)(2) - x(7)(1)(1)  = 0
 IloC129: - c(1) + y(7)(1) <= 0
 IloC130: y(7)(2) - x(7)(2)(3) - x(7)(2)(2) - x(7)(2)(1)  = 0
 IloC131: - c(2) + y(7)(2) <= 0
 IloC132: y(7)(3) - x(7)(3)(3) - x(7)(3)(2) - x(7)(3)(1)  = 0
 IloC133: - c(3) + y(7)(3) <= 0
 IloC134: y(7)(4) - x(7)(4)(3) - x(7)(4)(2) - x(7)(4)(1)  = 0
 IloC135: - c(4) + y(7)(4) <= 0
 IloC136: y(7)(5) - x(7)(5)(3) - x(7)(5)(2) - x(7)(5)(1)  = 0
 IloC137: - c(5) + y(7)(5) <= 0
 IloC138: y(7)(6) - x(7)(6)(3) - x(7)(6)(2) - x(7)(6)(1)  = 0
 IloC139: - c(6) + y(7)(6) <= 0
 IloC140: y(7)(7) - x(7)(7)(3) - x(7)(7)(2) - x(7)(7)(1)  = 0
 IloC141: - c(7) + y(7)(7) <= 0
 IloC142: y(7)(8) - x(7)(8)(3) - x(7)(8)(2) - x(7)(8)(1)  = 0
 IloC143: - c(8) + y(7)(8) <= 0
 IloC144: y(8)(0) - x(8)(0)(3) - x(8)(0)(2) - x(8)(0)(1)  = 0
 IloC145: - c(0) + y(8)(0) <= 0
 IloC146: y(8)(1) - x(8)(1)(3) - x(8)(1)(2) - x(8)(1)(1)  = 0
 IloC147: - c(1) + y(8)(1) <= 0
 IloC148: y(8)(2) - x(8)(2)(3) - x(8)(2)(2) - x(8)(2)(1)  = 0
 IloC149: - c(2) + y(8)(2) <= 0
 IloC150: y(8)(3) - x(8)(3)(3) - x(8)(3)(2) - x(8)(3)(1)  = 0
 IloC151: - c(3) + y(8)(3) <= 0
 IloC152: y(8)(4) - x(8)(4)(3) - x(8)(4)(2) - x(8)(4)(1)  = 0
 IloC153: - c(4) + y(8)(4) <= 0
 IloC154: y(8)(5) - x(8)(5)(3) - x(8)(5)(2) - x(8)(5)(1)  = 0
 IloC155: - c(5) + y(8)(5) <= 0
 IloC156: y(8)(6) - x(8)(6)(3) - x(8)(6)(2) - x(8)(6)(1)  = 0
 IloC157: - c(6) + y(8)(6) <= 0
 IloC158: y(8)(7) - x(8)(7)(3) - x(8)(7)(2) - x(8)(7)(1)  = 0
 IloC159: - c(7) + y(8)(7) <= 0
 IloC160: y(8)(8) - x(8)(8)(3) - x(8)(8)(2) - x(8)(8)(1)  = 0
 IloC161: - c(8) + y(8)(8) <= 0
 IloC162: x(0)(0)(3) + x(0)(0)(2) + x(0)(0)(1) <= 1
 IloC163: x(0)(1)(3) + x(0)(1)(2) + x(0)(1)(1) <= 1
 IloC164: x(0)(2)(3) + x(0)(2)(2) + x(0)(2)(1) <= 1
 IloC165: x(0)(3)(3) + x(0)(3)(2) + x(0)(3)(1) <= 1
 IloC166: x(0)(4)(3) + x(0)(4)(2) + x(0)(4)(1) <= 1
 IloC167: x(0)(5)(3) + x(0)(5)(2) + x(0)(5)(1) <= 1
 IloC168: x(0)(6)(3) + x(0)(6)(2) + x(0)(6)(1) <= 1
 IloC169: x(0)(7)(3) + x(0)(7)(2) + x(0)(7)(1) <= 1
 IloC170: x(0)(8)(3) + x(0)(8)(2) + x(0)(8)(1) <= 1
 IloC171: x(1)(0)(3) + x(1)(0)(2) + x(1)(0)(1) <= 1
 IloC172: x(1)(1)(3) + x(1)(1)(2) + x(1)(1)(1) <= 1
 IloC173: x(1)(2)(3) + x(1)(2)(2) + x(1)(2)(1) <= 1
 IloC174: x(1)(3)(3) + x(1)(3)(2) + x(1)(3)(1) <= 1
 IloC175: x(1)(4)(3) + x(1)(4)(2) + x(1)(4)(1) <= 1
 IloC176: x(1)(5)(3) + x(1)(5)(2) + x(1)(5)(1) <= 1
 IloC177: x(1)(6)(3) + x(1)(6)(2) + x(1)(6)(1) <= 1
 IloC178: x(1)(7)(3) + x(1)(7)(2) + x(1)(7)(1) <= 1
 IloC179: x(1)(8)(3) + x(1)(8)(2) + x(1)(8)(1) <= 1
 IloC180: x(2)(0)(3) + x(2)(0)(2) + x(2)(0)(1) <= 1
 IloC181: x(2)(1)(3) + x(2)(1)(2) + x(2)(1)(1) <= 1
 IloC182: x(2)(2)(3) + x(2)(2)(2) + x(2)(2)(1) <= 1
 IloC183: x(2)(3)(3) + x(2)(3)(2) + x(2)(3)(1) <= 1
 IloC184: x(2)(4)(3) + x(2)(4)(2) + x(2)(4)(1) <= 1
 IloC185: x(2)(5)(3) + x(2)(5)(2) + x(2)(5)(1) <= 1
 IloC186: x(2)(6)(3) + x(2)(6)(2) + x(2)(6)(1) <= 1
 IloC187: x(2)(7)(3) + x(2)(7)(2) + x(2)(7)(1) <= 1
 IloC188: x(2)(8)(3) + x(2)(8)(2) + x(2)(8)(1) <= 1
 IloC189: x(3)(0)(3) + x(3)(0)(2) + x(3)(0)(1) <= 1
 IloC190: x(3)(1)(3) + x(3)(1)(2) + x(3)(1)(1) <= 1
 IloC191: x(3)(2)(3) + x(3)(2)(2) + x(3)(2)(1) <= 1
 IloC192: x(3)(3)(3) + x(3)(3)(2) + x(3)(3)(1) <= 1
 IloC193: x(3)(4)(3) + x(3)(4)(2) + x(3)(4)(1) <= 1
 IloC194: x(3)(5)(3) + x(3)(5)(2) + x(3)(5)(1) <= 1
 IloC195: x(3)(6)(3) + x(3)(6)(2) + x(3)(6)(1) <= 1
 IloC196: x(3)(7)(3) + x(3)(7)(2) + x(3)(7)(1) <= 1
 IloC197: x(3)(8)(3) + x(3)(8)(2) + x(3)(8)(1) <= 1
 IloC198: x(4)(0)(3) + x(4)(0)(2) + x(4)(0)(1) <= 1
 IloC199: x(4)(1)(3) + x(4)(1)(2) + x(4)(1)(1) <= 1
 IloC200: x(4)(2)(3) + x(4)(2)(2) + x(4)(2)(1) <= 1
 IloC201: x(4)(3)(3) + x(4)(3)(2) + x(4)(3)(1) <= 1
 IloC202: x(4)(4)(3) + x(4)(4)(2) + x(4)(4)(1) <= 1
 IloC203: x(4)(5)(3) + x(4)(5)(2) + x(4)(5)(1) <= 1
 IloC204: x(4)(6)(3) + x(4)(6)(2) + x(4)(6)(1) <= 1
 IloC205: x(4)(7)(3) + x(4)(7)(2) + x(4)(7)(1) <= 1
 IloC206: x(4)(8)(3) + x(4)(8)(2) + x(4)(8)(1) <= 1
 IloC207: x(5)(0)(3) + x(5)(0)(2) + x(5)(0)(1) <= 1
 IloC208: x(5)(1)(3) + x(5)(1)(2) + x(5)(1)(1) <= 1
 IloC209: x(5)(2)(3) + x(5)(2)(2) + x(5)(2)(1) <= 1
 IloC210: x(5)(3)(3) + x(5)(3)(2) + x(5)(3)(1) <= 1
 IloC211: x(5)(4)(3) + x(5)(4)(2) + x(5)(4)(1) <= 1
 IloC212: x(5)(5)(3) + x(5)(5)(2) + x(5)(5)(1) <= 1
 IloC213: x(5)(6)(3) + x(5)(6)(2) + x(5)(6)(1) <= 1
 IloC214: x(5)(7)(3) + x(5)(7)(2) + x(5)(7)(1) <= 1
 IloC215: x(5)(8)(3) + x(5)(8)(2) + x(5)(8)(1) <= 1
 IloC216: x(6)(0)(3) + x(6)(0)(2) + x(6)(0)(1) <= 1
 IloC217: x(6)(1)(3) + x(6)(1)(2) + x(6)(1)(1) <= 1
 IloC218: x(6)(2)(3) + x(6)(2)(2) + x(6)(2)(1) <= 1
 IloC219: x(6)(3)(3) + x(6)(3)(2) + x(6)(3)(1) <= 1
 IloC220: x(6)(4)(3) + x(6)(4)(2) + x(6)(4)(1) <= 1
 IloC221: x(6)(5)(3) + x(6)(5)(2) + x(6)(5)(1) <= 1
 IloC222: x(6)(6)(3) + x(6)(6)(2) + x(6)(6)(1) <= 1
 IloC223: x(6)(7)(3) + x(6)(7)(2) + x(6)(7)(1) <= 1
 IloC224: x(6)(8)(3) + x(6)(8)(2) + x(6)(8)(1) <= 1
 IloC225: x(7)(0)(3) + x(7)(0)(2) + x(7)(0)(1) <= 1
 IloC226: x(7)(1)(3) + x(7)(1)(2) + x(7)(1)(1) <= 1
 IloC227: x(7)(2)(3) + x(7)(2)(2) + x(7)(2)(1) <= 1
 IloC228: x(7)(3)(3) + x(7)(3)(2) + x(7)(3)(1) <= 1
 IloC229: x(7)(4)(3) + x(7)(4)(2) + x(7)(4)(1) <= 1
 IloC230: x(7)(5)(3) + x(7)(5)(2) + x(7)(5)(1) <= 1
 IloC231: x(7)(6)(3) + x(7)(6)(2) + x(7)(6)(1) <= 1
 IloC232: x(7)(7)(3) + x(7)(7)(2) + x(7)(7)(1) <= 1
 IloC233: x(7)(8)(3) + x(7)(8)(2) + x(7)(8)(1) <= 1
 IloC234: x(8)(0)(3) + x(8)(0)(2) + x(8)(0)(1) <= 1
 IloC235: x(8)(1)(3) + x(8)(1)(2) + x(8)(1)(1) <= 1
 IloC236: x(8)(2)(3) + x(8)(2)(2) + x(8)(2)(1) <= 1
 IloC237: x(8)(3)(3) + x(8)(3)(2) + x(8)(3)(1) <= 1
 IloC238: x(8)(4)(3) + x(8)(4)(2) + x(8)(4)(1) <= 1
 IloC239: x(8)(5)(3) + x(8)(5)(2) + x(8)(5)(1) <= 1
 IloC240: x(8)(6)(3) + x(8)(6)(2) + x(8)(6)(1) <= 1
 IloC241: x(8)(7)(3) + x(8)(7)(2) + x(8)(7)(1) <= 1
 IloC242: x(8)(8)(3) + x(8)(8)(2) + x(8)(8)(1) <= 1
 IloC243: y(1)(2) + x(1)(2)(1) + y(2)(2) + y(6)(2) <= 3
 IloC244: y(1)(2) + y(2)(2) + x(2)(2)(1) + y(6)(2) <= 3
 IloC245: y(1)(2) + y(2)(2) + y(6)(2) + x(6)(2)(1) <= 3
 IloC246: y(0)(2) + x(0)(2)(1) + y(1)(2) + y(7)(2) <= 3
 IloC247: y(0)(2) + y(1)(2) + x(1)(2)(1) + y(7)(2) <= 3
 IloC248: y(0)(2) + y(1)(2) + y(7)(2) + x(7)(2)(1) <= 3
 IloC249: y(4)(2) + x(4)(2)(1) + y(5)(2) + y(7)(2) <= 3
 IloC250: y(4)(2) + y(5)(2) + x(5)(2)(1) + y(7)(2) <= 3
 IloC251: y(4)(2) + y(5)(2) + y(7)(2) + x(7)(2)(1) <= 3
 IloC252: y(2)(2) + y(3)(2) + x(3)(2)(1) + y(5)(2) <= 3
 IloC253: y(2)(2) + y(3)(2) + y(5)(2) + x(5)(2)(1) <= 3
 IloC254: y(2)(2) + x(2)(2)(1) + y(3)(2) + y(5)(2) <= 3
 IloC255: y(4)(2) + x(4)(2)(1) + y(5)(2) + y(8)(2) <= 3
 IloC256: y(4)(2) + y(5)(2) + x(5)(2)(1) + y(8)(2) <= 3
 IloC257: y(4)(2) + y(5)(2) + y(8)(2) + x(8)(2)(1) <= 3
 IloC258: y(0)(2) + x(0)(2)(1) + y(1)(2) + y(2)(2) <= 3
 IloC259: y(0)(2) + y(1)(2) + x(1)(2)(1) + y(2)(2) <= 3
 IloC260: y(0)(2) + y(1)(2) + y(2)(2) + x(2)(2)(1) <= 3
 IloC261: y(0)(2) + x(0)(2)(1) + y(1)(2) + y(5)(2) <= 3
 IloC262: y(0)(2) + y(1)(2) + x(1)(2)(1) + y(5)(2) <= 3
 IloC263: y(0)(2) + y(1)(2) + y(5)(2) + x(5)(2)(1) <= 3
 IloC264: y(1)(2) + y(3)(2) + x(3)(2)(1) + y(4)(2) <= 3
 IloC265: y(1)(2) + x(1)(2)(1) + y(3)(2) + y(4)(2) <= 3
 IloC266: y(1)(2) + y(3)(2) + y(4)(2) + x(4)(2)(1) <= 3
 IloC267: y(0)(2) + y(1)(2) + x(1)(2)(1) + y(6)(2) <= 3
 IloC268: y(0)(2) + x(0)(2)(1) + y(1)(2) + y(6)(2) <= 3
 IloC269: y(0)(2) + y(1)(2) + y(6)(2) + x(6)(2)(1) <= 3
 IloC270: y(0)(2) + y(1)(2) + y(3)(2) + x(3)(2)(1) <= 3
 IloC271: y(0)(2) + x(0)(2)(1) + y(1)(2) + y(3)(2) <= 3
 IloC272: y(0)(2) + y(1)(2) + x(1)(2)(1) + y(3)(2) <= 3
 IloC273: y(3)(2) + x(3)(2)(1) + y(7)(2) + y(8)(2) <= 3
 IloC274: y(3)(2) + y(7)(2) + x(7)(2)(1) + y(8)(2) <= 3
 IloC275: y(3)(2) + y(7)(2) + y(8)(2) + x(8)(2)(1) <= 3
 IloC276: y(1)(2) + x(1)(2)(1) + y(5)(2) + y(7)(2) <= 3
 IloC277: y(1)(2) + y(5)(2) + x(5)(2)(1) + y(7)(2) <= 3
 IloC278: y(1)(2) + y(5)(2) + y(7)(2) + x(7)(2)(1) <= 3
 IloC279: y(0)(2) + y(3)(2) + x(3)(2)(1) + y(4)(2) <= 3
 IloC280: y(0)(2) + x(0)(2)(1) + y(3)(2) + y(4)(2) <= 3
 IloC281: y(0)(2) + y(3)(2) + y(4)(2) + x(4)(2)(1) <= 3
 IloC282: y(0)(2) + x(0)(2)(1) + y(4)(2) + y(8)(2) <= 3
 IloC283: y(0)(2) + y(4)(2) + x(4)(2)(1) + y(8)(2) <= 3
 IloC284: y(0)(2) + y(4)(2) + y(8)(2) + x(8)(2)(1) <= 3
 IloC285: y(1)(2) + x(1)(2)(1) + y(4)(2) + y(8)(2) <= 3
 IloC286: y(1)(2) + y(4)(2) + x(4)(2)(1) + y(8)(2) <= 3
 IloC287: y(1)(2) + y(4)(2) + y(8)(2) + x(8)(2)(1) <= 3
 IloC288: y(0)(2) + x(0)(2)(1) + y(5)(2) + y(7)(2) <= 3
 IloC289: y(0)(2) + y(5)(2) + x(5)(2)(1) + y(7)(2) <= 3
 IloC290: y(0)(2) + y(5)(2) + y(7)(2) + x(7)(2)(1) <= 3
 IloC291: y(1)(2) + x(1)(2)(1) + y(4)(2) + y(5)(2) <= 3
 IloC292: y(1)(2) + y(4)(2) + x(4)(2)(1) + y(5)(2) <= 3
 IloC293: y(1)(2) + y(4)(2) + y(5)(2) + x(5)(2)(1) <= 3
 IloC294: y(1)(2) + x(1)(2)(1) + y(7)(2) + y(8)(2) <= 3
 IloC295: y(1)(2) + y(7)(2) + x(7)(2)(1) + y(8)(2) <= 3
 IloC296: y(1)(2) + y(7)(2) + y(8)(2) + x(8)(2)(1) <= 3
 IloC297: y(2)(2) + x(2)(2)(1) + y(6)(2) + y(8)(2) <= 3
 IloC298: y(2)(2) + y(6)(2) + x(6)(2)(1) + y(8)(2) <= 3
 IloC299: y(2)(2) + y(6)(2) + y(8)(2) + x(8)(2)(1) <= 3
 IloC300: y(0)(2) + y(3)(2) + x(3)(2)(1) + y(8)(2) <= 3
 IloC301: y(0)(2) + x(0)(2)(1) + y(3)(2) + y(8)(2) <= 3
 IloC302: y(0)(2) + y(3)(2) + y(8)(2) + x(8)(2)(1) <= 3
 IloC303: y(3)(2) + x(3)(2)(1) + y(4)(2) + y(7)(2) <= 3
 IloC304: y(3)(2) + y(4)(2) + x(4)(2)(1) + y(7)(2) <= 3
 IloC305: y(3)(2) + y(4)(2) + y(7)(2) + x(7)(2)(1) <= 3
 IloC306: y(0)(2) + x(0)(2)(1) + y(2)(2) + y(5)(2) <= 3
 IloC307: y(0)(2) + y(2)(2) + x(2)(2)(1) + y(5)(2) <= 3
 IloC308: y(0)(2) + y(2)(2) + y(5)(2) + x(5)(2)(1) <= 3
 IloC309: y(2)(2) + y(3)(2) + x(3)(2)(1) + y(8)(2) <= 3
 IloC310: y(2)(2) + x(2)(2)(1) + y(3)(2) + y(8)(2) <= 3
 IloC311: y(2)(2) + y(3)(2) + y(8)(2) + x(8)(2)(1) <= 3
 IloC312: y(0)(2) + x(0)(2)(1) + y(1)(2) + y(8)(2) <= 3
 IloC313: y(0)(2) + y(1)(2) + x(1)(2)(1) + y(8)(2) <= 3
 IloC314: y(0)(2) + y(1)(2) + y(8)(2) + x(8)(2)(1) <= 3
 IloC315: y(2)(2) + y(5)(2) + x(5)(2)(1) + y(8)(2) <= 3
 IloC316: y(2)(2) + x(2)(2)(1) + y(5)(2) + y(8)(2) <= 3
 IloC317: y(2)(2) + y(5)(2) + y(8)(2) + x(8)(2)(1) <= 3
 IloC318: y(4)(2) + x(4)(2)(1) + y(7)(2) + y(8)(2) <= 3
 IloC319: y(4)(2) + y(7)(2) + x(7)(2)(1) + y(8)(2) <= 3
 IloC320: y(4)(2) + y(7)(2) + y(8)(2) + x(8)(2)(1) <= 3
 IloC321: y(0)(2) + x(0)(2)(1) + y(4)(2) + y(7)(2) <= 3
 IloC322: y(0)(2) + y(4)(2) + x(4)(2)(1) + y(7)(2) <= 3
 IloC323: y(0)(2) + y(4)(2) + y(7)(2) + x(7)(2)(1) <= 3
 IloC324: y(1)(2) + y(3)(2) + x(3)(2)(1) + y(8)(2) <= 3
 IloC325: y(1)(2) + x(1)(2)(1) + y(3)(2) + y(8)(2) <= 3
 IloC326: y(1)(2) + y(3)(2) + y(8)(2) + x(8)(2)(1) <= 3
 IloC327: y(0)(2) + x(0)(2)(1) + y(7)(2) + y(8)(2) <= 3
 IloC328: y(0)(2) + y(7)(2) + x(7)(2)(1) + y(8)(2) <= 3
 IloC329: y(0)(2) + y(7)(2) + y(8)(2) + x(8)(2)(1) <= 3
 IloC330: y(1)(2) + x(1)(2)(1) + y(4)(2) + y(7)(2) <= 3
 IloC331: y(1)(2) + y(4)(2) + x(4)(2)(1) + y(7)(2) <= 3
 IloC332: y(1)(2) + y(4)(2) + y(7)(2) + x(7)(2)(1) <= 3
 IloC333: y(1)(2) + x(1)(2)(1) + y(2)(2) + y(8)(2) <= 3
 IloC334: y(1)(2) + y(2)(2) + x(2)(2)(1) + y(8)(2) <= 3
 IloC335: y(1)(2) + y(2)(2) + y(8)(2) + x(8)(2)(1) <= 3
 IloC336: y(2)(2) + x(2)(2)(1) + y(7)(2) + y(8)(2) <= 3
 IloC337: y(2)(2) + y(7)(2) + x(7)(2)(1) + y(8)(2) <= 3
 IloC338: y(2)(2) + y(7)(2) + y(8)(2) + x(8)(2)(1) <= 3
 IloC339: y(3)(2) + x(3)(2)(1) + y(4)(2) + y(5)(2) <= 3
 IloC340: y(3)(2) + y(4)(2) + x(4)(2)(1) + y(5)(2) <= 3
 IloC341: y(3)(2) + y(4)(2) + y(5)(2) + x(5)(2)(1) <= 3
 IloC342: y(2)(2) + y(3)(2) + x(3)(2)(1) + y(7)(2) <= 3
 IloC343: y(2)(2) + x(2)(2)(1) + y(3)(2) + y(7)(2) <= 3
 IloC344: y(2)(2) + y(3)(2) + y(7)(2) + x(7)(2)(1) <= 3
 IloC345: y(5)(2) + x(5)(2)(1) + y(7)(2) + y(8)(2) <= 3
 IloC346: y(5)(2) + y(7)(2) + x(7)(2)(1) + y(8)(2) <= 3
 IloC347: y(5)(2) + y(7)(2) + y(8)(2) + x(8)(2)(1) <= 3
 IloC348: y(1)(2) + x(1)(2)(1) + y(6)(2) + y(7)(2) <= 3
 IloC349: y(1)(2) + y(6)(2) + x(6)(2)(1) + y(7)(2) <= 3
 IloC350: y(1)(2) + y(6)(2) + y(7)(2) + x(7)(2)(1) <= 3
 IloC351: y(0)(2) + x(0)(2)(1) + y(2)(2) + y(7)(2) <= 3
 IloC352: y(0)(2) + y(2)(2) + x(2)(2)(1) + y(7)(2) <= 3
 IloC353: y(0)(2) + y(2)(2) + y(7)(2) + x(7)(2)(1) <= 3
 IloC354: y(0)(2) + y(3)(2) + x(3)(2)(1) + y(5)(2) <= 3
 IloC355: y(0)(2) + x(0)(2)(1) + y(3)(2) + y(5)(2) <= 3
 IloC356: y(0)(2) + y(3)(2) + y(5)(2) + x(5)(2)(1) <= 3
 IloC357: y(2)(2) + y(3)(2) + x(3)(2)(1) + y(6)(2) <= 3
 IloC358: y(2)(2) + x(2)(2)(1) + y(3)(2) + y(6)(2) <= 3
 IloC359: y(2)(2) + y(3)(2) + y(6)(2) + x(6)(2)(1) <= 3
 IloC360: y(1)(2) + y(3)(2) + x(3)(2)(1) + y(5)(2) <= 3
 IloC361: y(1)(2) + x(1)(2)(1) + y(3)(2) + y(5)(2) <= 3
 IloC362: y(1)(2) + y(3)(2) + y(5)(2) + x(5)(2)(1) <= 3
 IloC363: y(0)(2) + x(0)(2)(1) + y(6)(2) + y(8)(2) <= 3
 IloC364: y(0)(2) + y(6)(2) + x(6)(2)(1) + y(8)(2) <= 3
 IloC365: y(0)(2) + y(6)(2) + y(8)(2) + x(8)(2)(1) <= 3
 IloC366: y(2)(2) + x(2)(2)(1) + y(6)(2) + y(7)(2) <= 3
 IloC367: y(2)(2) + y(6)(2) + x(6)(2)(1) + y(7)(2) <= 3
 IloC368: y(2)(2) + y(6)(2) + y(7)(2) + x(7)(2)(1) <= 3
 IloC369: y(0)(2) + y(2)(2) + y(3)(2) + x(3)(2)(1) <= 3
 IloC370: y(0)(2) + x(0)(2)(1) + y(2)(2) + y(3)(2) <= 3
 IloC371: y(0)(2) + y(2)(2) + x(2)(2)(1) + y(3)(2) <= 3
 IloC372: y(1)(2) + y(3)(2) + x(3)(2)(1) + y(6)(2) <= 3
 IloC373: y(1)(2) + x(1)(2)(1) + y(3)(2) + y(6)(2) <= 3
 IloC374: y(1)(2) + y(3)(2) + y(6)(2) + x(6)(2)(1) <= 3
 IloC375: y(0)(2) + x(0)(2)(1) + y(6)(2) + y(7)(2) <= 3
 IloC376: y(0)(2) + y(6)(2) + x(6)(2)(1) + y(7)(2) <= 3
 IloC377: y(0)(2) + y(6)(2) + y(7)(2) + x(7)(2)(1) <= 3
 IloC378: y(0)(2) + x(0)(2)(1) + y(4)(2) + y(5)(2) <= 3
 IloC379: y(0)(2) + y(4)(2) + x(4)(2)(1) + y(5)(2) <= 3
 IloC380: y(0)(2) + y(4)(2) + y(5)(2) + x(5)(2)(1) <= 3
 IloC381: y(6)(2) + x(6)(2)(1) + y(7)(2) + y(8)(2) <= 3
 IloC382: y(6)(2) + y(7)(2) + x(7)(2)(1) + y(8)(2) <= 3
 IloC383: y(6)(2) + y(7)(2) + y(8)(2) + x(8)(2)(1) <= 3
 IloC384: y(0)(2) + y(3)(2) + x(3)(2)(1) + y(7)(2) <= 3
 IloC385: y(0)(2) + x(0)(2)(1) + y(3)(2) + y(7)(2) <= 3
 IloC386: y(0)(2) + y(3)(2) + y(7)(2) + x(7)(2)(1) <= 3
 IloC387: y(0)(2) + x(0)(2)(1) + y(2)(2) + y(6)(2) <= 3
 IloC388: y(0)(2) + y(2)(2) + x(2)(2)(1) + y(6)(2) <= 3
 IloC389: y(0)(2) + y(2)(2) + y(6)(2) + x(6)(2)(1) <= 3
 IloC390: y(3)(2) + x(3)(2)(1) + y(4)(2) + y(8)(2) <= 3
 IloC391: y(3)(2) + y(4)(2) + x(4)(2)(1) + y(8)(2) <= 3
 IloC392: y(3)(2) + y(4)(2) + y(8)(2) + x(8)(2)(1) <= 3
 IloC393: y(3)(2) + x(3)(2)(1) + y(6)(2) + y(7)(2) <= 3
 IloC394: y(3)(2) + y(6)(2) + x(6)(2)(1) + y(7)(2) <= 3
 IloC395: y(3)(2) + y(6)(2) + y(7)(2) + x(7)(2)(1) <= 3
 IloC396: y(1)(2) + x(1)(2)(1) + y(5)(2) + y(8)(2) <= 3
 IloC397: y(1)(2) + y(5)(2) + x(5)(2)(1) + y(8)(2) <= 3
 IloC398: y(1)(2) + y(5)(2) + y(8)(2) + x(8)(2)(1) <= 3
 IloC399: y(1)(2) + y(3)(2) + x(3)(2)(1) + y(7)(2) <= 3
 IloC400: y(1)(2) + x(1)(2)(1) + y(3)(2) + y(7)(2) <= 3
 IloC401: y(1)(2) + y(3)(2) + y(7)(2) + x(7)(2)(1) <= 3
 IloC402: y(1)(2) + x(1)(2)(1) + y(2)(2) + y(7)(2) <= 3
 IloC403: y(1)(2) + y(2)(2) + x(2)(2)(1) + y(7)(2) <= 3
 IloC404: y(1)(2) + y(2)(2) + y(7)(2) + x(7)(2)(1) <= 3
 IloC405: y(1)(2) + x(1)(2)(1) + y(2)(2) + y(5)(2) <= 3
 IloC406: y(1)(2) + y(2)(2) + x(2)(2)(1) + y(5)(2) <= 3
 IloC407: y(1)(2) + y(2)(2) + y(5)(2) + x(5)(2)(1) <= 3
 IloC408: y(1)(2) + x(1)(2)(1) + y(6)(2) + y(8)(2) <= 3
 IloC409: y(1)(2) + y(6)(2) + x(6)(2)(1) + y(8)(2) <= 3
 IloC410: y(1)(2) + y(6)(2) + y(8)(2) + x(8)(2)(1) <= 3
 IloC411: y(3)(2) + x(3)(2)(1) + y(6)(2) + y(8)(2) <= 3
 IloC412: y(3)(2) + y(6)(2) + x(6)(2)(1) + y(8)(2) <= 3
 IloC413: y(3)(2) + y(6)(2) + y(8)(2) + x(8)(2)(1) <= 3
 IloC414: y(0)(2) + x(0)(2)(1) + y(5)(2) + y(8)(2) <= 3
 IloC415: y(0)(2) + y(5)(2) + x(5)(2)(1) + y(8)(2) <= 3
 IloC416: y(0)(2) + y(5)(2) + y(8)(2) + x(8)(2)(1) <= 3
 IloC417: y(0)(2) + y(3)(2) + x(3)(2)(1) + y(6)(2) <= 3
 IloC418: y(0)(2) + x(0)(2)(1) + y(3)(2) + y(6)(2) <= 3
 IloC419: y(0)(2) + y(3)(2) + y(6)(2) + x(6)(2)(1) <= 3
 IloC420: y(0)(2) + x(0)(2)(1) + y(1)(2) + y(4)(2) <= 3
 IloC421: y(0)(2) + y(1)(2) + x(1)(2)(1) + y(4)(2) <= 3
 IloC422: y(0)(2) + y(1)(2) + y(4)(2) + x(4)(2)(1) <= 3
 IloC423: y(3)(2) + x(3)(2)(1) + y(5)(2) + y(8)(2) <= 3
 IloC424: y(3)(2) + y(5)(2) + x(5)(2)(1) + y(8)(2) <= 3
 IloC425: y(3)(2) + y(5)(2) + y(8)(2) + x(8)(2)(1) <= 3
 IloC426: y(3)(2) + x(3)(2)(1) + y(5)(2) + y(7)(2) <= 3
 IloC427: y(3)(2) + y(5)(2) + x(5)(2)(1) + y(7)(2) <= 3
 IloC428: y(3)(2) + y(5)(2) + y(7)(2) + x(7)(2)(1) <= 3
 IloC429: y(2)(2) + x(2)(2)(1) + y(5)(2) + y(7)(2) <= 3
 IloC430: y(2)(2) + y(5)(2) + x(5)(2)(1) + y(7)(2) <= 3
 IloC431: y(2)(2) + y(5)(2) + y(7)(2) + x(7)(2)(1) <= 3
 IloC432: y(0)(2) + x(0)(2)(1) + y(2)(2) + y(8)(2) <= 3
 IloC433: y(0)(2) + y(2)(2) + x(2)(2)(1) + y(8)(2) <= 3
 IloC434: y(0)(2) + y(2)(2) + y(8)(2) + x(8)(2)(1) <= 3
 IloC435: y(1)(2) + y(2)(2) + y(3)(2) + x(3)(2)(1) <= 3
 IloC436: y(1)(2) + x(1)(2)(1) + y(2)(2) + y(3)(2) <= 3
 IloC437: y(1)(2) + y(2)(2) + x(2)(2)(1) + y(3)(2) <= 3
 IloC438: 13333333.3333333 x(0)(2)(3) + 20000000 x(0)(2)(2)
          + 40000000 x(0)(2)(1) + 3333333.33333333 x(0)(3)(3)
          + 5000000 x(0)(3)(2) + 10000000 x(0)(3)(1) >= 80000000
 IloC439: 15000000 x(1)(0)(3) + 22500000 x(1)(0)(2) + 45000000 x(1)(0)(1)
          + 15000000 x(1)(2)(3) + 22500000 x(1)(2)(2) + 45000000 x(1)(2)(1)
          >= 160000000
 IloC440: 15000000 x(2)(0)(3) + 22500000 x(2)(0)(2) + 45000000 x(2)(0)(1)
          + 15000000 x(2)(2)(3) + 22500000 x(2)(2)(2) + 45000000 x(2)(2)(1)
          + 3333333.33333333 x(2)(3)(3) + 5000000 x(2)(3)(2)
          + 10000000 x(2)(3)(1) >= 40000000
 IloC441: 13333333.3333333 x(3)(2)(3) + 20000000 x(3)(2)(2)
          + 40000000 x(3)(2)(1) >= 60000000
 IloC442: 10000000 x(4)(2)(3) + 15000000 x(4)(2)(2) + 30000000 x(4)(2)(1)
          >= 20000000
 IloC443: 15000000 x(5)(2)(3) + 22500000 x(5)(2)(2) + 45000000 x(5)(2)(1)
          >= 80000000
 IloC444: 15000000 x(6)(2)(3) + 22500000 x(6)(2)(2) + 45000000 x(6)(2)(1)
          + 3333333.33333333 x(6)(7)(3) + 5000000 x(6)(7)(2)
          + 10000000 x(6)(7)(1) >= 40000000
 IloC445: 15000000 x(7)(2)(3) + 22500000 x(7)(2)(2) + 45000000 x(7)(2)(1)
          + 3333333.33333333 x(7)(3)(3) + 5000000 x(7)(3)(2)
          + 10000000 x(7)(3)(1) >= 80000000
 IloC446: 15000000 x(8)(2)(3) + 22500000 x(8)(2)(2) + 45000000 x(8)(2)(1)
          + 3333333.33333333 x(8)(3)(3) + 5000000 x(8)(3)(2)
          + 10000000 x(8)(3)(1) >= 40000000
Bounds
 0 <= c(0) <= 1
 0 <= c(1) <= 1
 0 <= c(2) <= 1
 0 <= c(3) <= 1
 0 <= c(4) <= 1
 0 <= c(5) <= 1
 0 <= c(6) <= 1
 0 <= c(7) <= 1
 0 <= c(8) <= 1
 0 <= y(0)(0) <= 1
 0 <= x(0)(0)(3) <= 1
 0 <= x(0)(0)(2) <= 1
 0 <= x(0)(0)(1) <= 1
 0 <= y(0)(1) <= 1
 0 <= x(0)(1)(3) <= 1
 0 <= x(0)(1)(2) <= 1
 0 <= x(0)(1)(1) <= 1
 0 <= y(0)(2) <= 1
 0 <= x(0)(2)(3) <= 1
 0 <= x(0)(2)(2) <= 1
 0 <= x(0)(2)(1) <= 1
 0 <= y(0)(3) <= 1
 0 <= x(0)(3)(3) <= 1
 0 <= x(0)(3)(2) <= 1
 0 <= x(0)(3)(1) <= 1
 0 <= y(0)(4) <= 1
 0 <= x(0)(4)(3) <= 1
 0 <= x(0)(4)(2) <= 1
 0 <= x(0)(4)(1) <= 1
 0 <= y(0)(5) <= 1
 0 <= x(0)(5)(3) <= 1
 0 <= x(0)(5)(2) <= 1
 0 <= x(0)(5)(1) <= 1
 0 <= y(0)(6) <= 1
 0 <= x(0)(6)(3) <= 1
 0 <= x(0)(6)(2) <= 1
 0 <= x(0)(6)(1) <= 1
 0 <= y(0)(7) <= 1
 0 <= x(0)(7)(3) <= 1
 0 <= x(0)(7)(2) <= 1
 0 <= x(0)(7)(1) <= 1
 0 <= y(0)(8) <= 1
 0 <= x(0)(8)(3) <= 1
 0 <= x(0)(8)(2) <= 1
 0 <= x(0)(8)(1) <= 1
 0 <= y(1)(0) <= 1
 0 <= x(1)(0)(3) <= 1
 0 <= x(1)(0)(2) <= 1
 0 <= x(1)(0)(1) <= 1
 0 <= y(1)(1) <= 1
 0 <= x(1)(1)(3) <= 1
 0 <= x(1)(1)(2) <= 1
 0 <= x(1)(1)(1) <= 1
 0 <= y(1)(2) <= 1
 0 <= x(1)(2)(3) <= 1
 0 <= x(1)(2)(2) <= 1
 0 <= x(1)(2)(1) <= 1
 0 <= y(1)(3) <= 1
 0 <= x(1)(3)(3) <= 1
 0 <= x(1)(3)(2) <= 1
 0 <= x(1)(3)(1) <= 1
 0 <= y(1)(4) <= 1
 0 <= x(1)(4)(3) <= 1
 0 <= x(1)(4)(2) <= 1
 0 <= x(1)(4)(1) <= 1
 0 <= y(1)(5) <= 1
 0 <= x(1)(5)(3) <= 1
 0 <= x(1)(5)(2) <= 1
 0 <= x(1)(5)(1) <= 1
 0 <= y(1)(6) <= 1
 0 <= x(1)(6)(3) <= 1
 0 <= x(1)(6)(2) <= 1
 0 <= x(1)(6)(1) <= 1
 0 <= y(1)(7) <= 1
 0 <= x(1)(7)(3) <= 1
 0 <= x(1)(7)(2) <= 1
 0 <= x(1)(7)(1) <= 1
 0 <= y(1)(8) <= 1
 0 <= x(1)(8)(3) <= 1
 0 <= x(1)(8)(2) <= 1
 0 <= x(1)(8)(1) <= 1
 0 <= y(2)(0) <= 1
 0 <= x(2)(0)(3) <= 1
 0 <= x(2)(0)(2) <= 1
 0 <= x(2)(0)(1) <= 1
 0 <= y(2)(1) <= 1
 0 <= x(2)(1)(3) <= 1
 0 <= x(2)(1)(2) <= 1
 0 <= x(2)(1)(1) <= 1
 0 <= y(2)(2) <= 1
 0 <= x(2)(2)(3) <= 1
 0 <= x(2)(2)(2) <= 1
 0 <= x(2)(2)(1) <= 1
 0 <= y(2)(3) <= 1
 0 <= x(2)(3)(3) <= 1
 0 <= x(2)(3)(2) <= 1
 0 <= x(2)(3)(1) <= 1
 0 <= y(2)(4) <= 1
 0 <= x(2)(4)(3) <= 1
 0 <= x(2)(4)(2) <= 1
 0 <= x(2)(4)(1) <= 1
 0 <= y(2)(5) <= 1
 0 <= x(2)(5)(3) <= 1
 0 <= x(2)(5)(2) <= 1
 0 <= x(2)(5)(1) <= 1
 0 <= y(2)(6) <= 1
 0 <= x(2)(6)(3) <= 1
 0 <= x(2)(6)(2) <= 1
 0 <= x(2)(6)(1) <= 1
 0 <= y(2)(7) <= 1
 0 <= x(2)(7)(3) <= 1
 0 <= x(2)(7)(2) <= 1
 0 <= x(2)(7)(1) <= 1
 0 <= y(2)(8) <= 1
 0 <= x(2)(8)(3) <= 1
 0 <= x(2)(8)(2) <= 1
 0 <= x(2)(8)(1) <= 1
 0 <= y(3)(0) <= 1
 0 <= x(3)(0)(3) <= 1
 0 <= x(3)(0)(2) <= 1
 0 <= x(3)(0)(1) <= 1
 0 <= y(3)(1) <= 1
 0 <= x(3)(1)(3) <= 1
 0 <= x(3)(1)(2) <= 1
 0 <= x(3)(1)(1) <= 1
 0 <= y(3)(2) <= 1
 0 <= x(3)(2)(3) <= 1
 0 <= x(3)(2)(2) <= 1
 0 <= x(3)(2)(1) <= 1
 0 <= y(3)(3) <= 1
 0 <= x(3)(3)(3) <= 1
 0 <= x(3)(3)(2) <= 1
 0 <= x(3)(3)(1) <= 1
 0 <= y(3)(4) <= 1
 0 <= x(3)(4)(3) <= 1
 0 <= x(3)(4)(2) <= 1
 0 <= x(3)(4)(1) <= 1
 0 <= y(3)(5) <= 1
 0 <= x(3)(5)(3) <= 1
 0 <= x(3)(5)(2) <= 1
 0 <= x(3)(5)(1) <= 1
 0 <= y(3)(6) <= 1
 0 <= x(3)(6)(3) <= 1
 0 <= x(3)(6)(2) <= 1
 0 <= x(3)(6)(1) <= 1
 0 <= y(3)(7) <= 1
 0 <= x(3)(7)(3) <= 1
 0 <= x(3)(7)(2) <= 1
 0 <= x(3)(7)(1) <= 1
 0 <= y(3)(8) <= 1
 0 <= x(3)(8)(3) <= 1
 0 <= x(3)(8)(2) <= 1
 0 <= x(3)(8)(1) <= 1
 0 <= y(4)(0) <= 1
 0 <= x(4)(0)(3) <= 1
 0 <= x(4)(0)(2) <= 1
 0 <= x(4)(0)(1) <= 1
 0 <= y(4)(1) <= 1
 0 <= x(4)(1)(3) <= 1
 0 <= x(4)(1)(2) <= 1
 0 <= x(4)(1)(1) <= 1
 0 <= y(4)(2) <= 1
 0 <= x(4)(2)(3) <= 1
 0 <= x(4)(2)(2) <= 1
 0 <= x(4)(2)(1) <= 1
 0 <= y(4)(3) <= 1
 0 <= x(4)(3)(3) <= 1
 0 <= x(4)(3)(2) <= 1
 0 <= x(4)(3)(1) <= 1
 0 <= y(4)(4) <= 1
 0 <= x(4)(4)(3) <= 1
 0 <= x(4)(4)(2) <= 1
 0 <= x(4)(4)(1) <= 1
 0 <= y(4)(5) <= 1
 0 <= x(4)(5)(3) <= 1
 0 <= x(4)(5)(2) <= 1
 0 <= x(4)(5)(1) <= 1
 0 <= y(4)(6) <= 1
 0 <= x(4)(6)(3) <= 1
 0 <= x(4)(6)(2) <= 1
 0 <= x(4)(6)(1) <= 1
 0 <= y(4)(7) <= 1
 0 <= x(4)(7)(3) <= 1
 0 <= x(4)(7)(2) <= 1
 0 <= x(4)(7)(1) <= 1
 0 <= y(4)(8) <= 1
 0 <= x(4)(8)(3) <= 1
 0 <= x(4)(8)(2) <= 1
 0 <= x(4)(8)(1) <= 1
 0 <= y(5)(0) <= 1
 0 <= x(5)(0)(3) <= 1
 0 <= x(5)(0)(2) <= 1
 0 <= x(5)(0)(1) <= 1
 0 <= y(5)(1) <= 1
 0 <= x(5)(1)(3) <= 1
 0 <= x(5)(1)(2) <= 1
 0 <= x(5)(1)(1) <= 1
 0 <= y(5)(2) <= 1
 0 <= x(5)(2)(3) <= 1
 0 <= x(5)(2)(2) <= 1
 0 <= x(5)(2)(1) <= 1
 0 <= y(5)(3) <= 1
 0 <= x(5)(3)(3) <= 1
 0 <= x(5)(3)(2) <= 1
 0 <= x(5)(3)(1) <= 1
 0 <= y(5)(4) <= 1
 0 <= x(5)(4)(3) <= 1
 0 <= x(5)(4)(2) <= 1
 0 <= x(5)(4)(1) <= 1
 0 <= y(5)(5) <= 1
 0 <= x(5)(5)(3) <= 1
 0 <= x(5)(5)(2) <= 1
 0 <= x(5)(5)(1) <= 1
 0 <= y(5)(6) <= 1
 0 <= x(5)(6)(3) <= 1
 0 <= x(5)(6)(2) <= 1
 0 <= x(5)(6)(1) <= 1
 0 <= y(5)(7) <= 1
 0 <= x(5)(7)(3) <= 1
 0 <= x(5)(7)(2) <= 1
 0 <= x(5)(7)(1) <= 1
 0 <= y(5)(8) <= 1
 0 <= x(5)(8)(3) <= 1
 0 <= x(5)(8)(2) <= 1
 0 <= x(5)(8)(1) <= 1
 0 <= y(6)(0) <= 1
 0 <= x(6)(0)(3) <= 1
 0 <= x(6)(0)(2) <= 1
 0 <= x(6)(0)(1) <= 1
 0 <= y(6)(1) <= 1
 0 <= x(6)(1)(3) <= 1
 0 <= x(6)(1)(2) <= 1
 0 <= x(6)(1)(1) <= 1
 0 <= y(6)(2) <= 1
 0 <= x(6)(2)(3) <= 1
 0 <= x(6)(2)(2) <= 1
 0 <= x(6)(2)(1) <= 1
 0 <= y(6)(3) <= 1
 0 <= x(6)(3)(3) <= 1
 0 <= x(6)(3)(2) <= 1
 0 <= x(6)(3)(1) <= 1
 0 <= y(6)(4) <= 1
 0 <= x(6)(4)(3) <= 1
 0 <= x(6)(4)(2) <= 1
 0 <= x(6)(4)(1) <= 1
 0 <= y(6)(5) <= 1
 0 <= x(6)(5)(3) <= 1
 0 <= x(6)(5)(2) <= 1
 0 <= x(6)(5)(1) <= 1
 0 <= y(6)(6) <= 1
 0 <= x(6)(6)(3) <= 1
 0 <= x(6)(6)(2) <= 1
 0 <= x(6)(6)(1) <= 1
 0 <= y(6)(7) <= 1
 0 <= x(6)(7)(3) <= 1
 0 <= x(6)(7)(2) <= 1
 0 <= x(6)(7)(1) <= 1
 0 <= y(6)(8) <= 1
 0 <= x(6)(8)(3) <= 1
 0 <= x(6)(8)(2) <= 1
 0 <= x(6)(8)(1) <= 1
 0 <= y(7)(0) <= 1
 0 <= x(7)(0)(3) <= 1
 0 <= x(7)(0)(2) <= 1
 0 <= x(7)(0)(1) <= 1
 0 <= y(7)(1) <= 1
 0 <= x(7)(1)(3) <= 1
 0 <= x(7)(1)(2) <= 1
 0 <= x(7)(1)(1) <= 1
 0 <= y(7)(2) <= 1
 0 <= x(7)(2)(3) <= 1
 0 <= x(7)(2)(2) <= 1
 0 <= x(7)(2)(1) <= 1
 0 <= y(7)(3) <= 1
 0 <= x(7)(3)(3) <= 1
 0 <= x(7)(3)(2) <= 1
 0 <= x(7)(3)(1) <= 1
 0 <= y(7)(4) <= 1
 0 <= x(7)(4)(3) <= 1
 0 <= x(7)(4)(2) <= 1
 0 <= x(7)(4)(1) <= 1
 0 <= y(7)(5) <= 1
 0 <= x(7)(5)(3) <= 1
 0 <= x(7)(5)(2) <= 1
 0 <= x(7)(5)(1) <= 1
 0 <= y(7)(6) <= 1
 0 <= x(7)(6)(3) <= 1
 0 <= x(7)(6)(2) <= 1
 0 <= x(7)(6)(1) <= 1
 0 <= y(7)(7) <= 1
 0 <= x(7)(7)(3) <= 1
 0 <= x(7)(7)(2) <= 1
 0 <= x(7)(7)(1) <= 1
 0 <= y(7)(8) <= 1
 0 <= x(7)(8)(3) <= 1
 0 <= x(7)(8)(2) <= 1
 0 <= x(7)(8)(1) <= 1
 0 <= y(8)(0) <= 1
 0 <= x(8)(0)(3) <= 1
 0 <= x(8)(0)(2) <= 1
 0 <= x(8)(0)(1) <= 1
 0 <= y(8)(1) <= 1
 0 <= x(8)(1)(3) <= 1
 0 <= x(8)(1)(2) <= 1
 0 <= x(8)(1)(1) <= 1
 0 <= y(8)(2) <= 1
 0 <= x(8)(2)(3) <= 1
 0 <= x(8)(2)(2) <= 1
 0 <= x(8)(2)(1) <= 1
 0 <= y(8)(3) <= 1
 0 <= x(8)(3)(3) <= 1
 0 <= x(8)(3)(2) <= 1
 0 <= x(8)(3)(1) <= 1
 0 <= y(8)(4) <= 1
 0 <= x(8)(4)(3) <= 1
 0 <= x(8)(4)(2) <= 1
 0 <= x(8)(4)(1) <= 1
 0 <= y(8)(5) <= 1
 0 <= x(8)(5)(3) <= 1
 0 <= x(8)(5)(2) <= 1
 0 <= x(8)(5)(1) <= 1
 0 <= y(8)(6) <= 1
 0 <= x(8)(6)(3) <= 1
 0 <= x(8)(6)(2) <= 1
 0 <= x(8)(6)(1) <= 1
 0 <= y(8)(7) <= 1
 0 <= x(8)(7)(3) <= 1
 0 <= x(8)(7)(2) <= 1
 0 <= x(8)(7)(1) <= 1
 0 <= y(8)(8) <= 1
 0 <= x(8)(8)(3) <= 1
 0 <= x(8)(8)(2) <= 1
 0 <= x(8)(8)(1) <= 1
Generals
 c(0)  c(1)  c(2)  c(3)  c(4)  c(5)  c(6)  c(7)  c(8)  y(0)(0)  x(0)(0)(3) 
 x(0)(0)(2)  x(0)(0)(1)  y(0)(1)  x(0)(1)(3)  x(0)(1)(2)  x(0)(1)(1)  y(0)(2) 
 x(0)(2)(3)  x(0)(2)(2)  x(0)(2)(1)  y(0)(3)  x(0)(3)(3)  x(0)(3)(2) 
 x(0)(3)(1)  y(0)(4)  x(0)(4)(3)  x(0)(4)(2)  x(0)(4)(1)  y(0)(5)  x(0)(5)(3) 
 x(0)(5)(2)  x(0)(5)(1)  y(0)(6)  x(0)(6)(3)  x(0)(6)(2)  x(0)(6)(1)  y(0)(7) 
 x(0)(7)(3)  x(0)(7)(2)  x(0)(7)(1)  y(0)(8)  x(0)(8)(3)  x(0)(8)(2) 
 x(0)(8)(1)  y(1)(0)  x(1)(0)(3)  x(1)(0)(2)  x(1)(0)(1)  y(1)(1)  x(1)(1)(3) 
 x(1)(1)(2)  x(1)(1)(1)  y(1)(2)  x(1)(2)(3)  x(1)(2)(2)  x(1)(2)(1)  y(1)(3) 
 x(1)(3)(3)  x(1)(3)(2)  x(1)(3)(1)  y(1)(4)  x(1)(4)(3)  x(1)(4)(2) 
 x(1)(4)(1)  y(1)(5)  x(1)(5)(3)  x(1)(5)(2)  x(1)(5)(1)  y(1)(6)  x(1)(6)(3) 
 x(1)(6)(2)  x(1)(6)(1)  y(1)(7)  x(1)(7)(3)  x(1)(7)(2)  x(1)(7)(1)  y(1)(8) 
 x(1)(8)(3)  x(1)(8)(2)  x(1)(8)(1)  y(2)(0)  x(2)(0)(3)  x(2)(0)(2) 
 x(2)(0)(1)  y(2)(1)  x(2)(1)(3)  x(2)(1)(2)  x(2)(1)(1)  y(2)(2)  x(2)(2)(3) 
 x(2)(2)(2)  x(2)(2)(1)  y(2)(3)  x(2)(3)(3)  x(2)(3)(2)  x(2)(3)(1)  y(2)(4) 
 x(2)(4)(3)  x(2)(4)(2)  x(2)(4)(1)  y(2)(5)  x(2)(5)(3)  x(2)(5)(2) 
 x(2)(5)(1)  y(2)(6)  x(2)(6)(3)  x(2)(6)(2)  x(2)(6)(1)  y(2)(7)  x(2)(7)(3) 
 x(2)(7)(2)  x(2)(7)(1)  y(2)(8)  x(2)(8)(3)  x(2)(8)(2)  x(2)(8)(1)  y(3)(0) 
 x(3)(0)(3)  x(3)(0)(2)  x(3)(0)(1)  y(3)(1)  x(3)(1)(3)  x(3)(1)(2) 
 x(3)(1)(1)  y(3)(2)  x(3)(2)(3)  x(3)(2)(2)  x(3)(2)(1)  y(3)(3)  x(3)(3)(3) 
 x(3)(3)(2)  x(3)(3)(1)  y(3)(4)  x(3)(4)(3)  x(3)(4)(2)  x(3)(4)(1)  y(3)(5) 
 x(3)(5)(3)  x(3)(5)(2)  x(3)(5)(1)  y(3)(6)  x(3)(6)(3)  x(3)(6)(2) 
 x(3)(6)(1)  y(3)(7)  x(3)(7)(3)  x(3)(7)(2)  x(3)(7)(1)  y(3)(8)  x(3)(8)(3) 
 x(3)(8)(2)  x(3)(8)(1)  y(4)(0)  x(4)(0)(3)  x(4)(0)(2)  x(4)(0)(1)  y(4)(1) 
 x(4)(1)(3)  x(4)(1)(2)  x(4)(1)(1)  y(4)(2)  x(4)(2)(3)  x(4)(2)(2) 
 x(4)(2)(1)  y(4)(3)  x(4)(3)(3)  x(4)(3)(2)  x(4)(3)(1)  y(4)(4)  x(4)(4)(3) 
 x(4)(4)(2)  x(4)(4)(1)  y(4)(5)  x(4)(5)(3)  x(4)(5)(2)  x(4)(5)(1)  y(4)(6) 
 x(4)(6)(3)  x(4)(6)(2)  x(4)(6)(1)  y(4)(7)  x(4)(7)(3)  x(4)(7)(2) 
 x(4)(7)(1)  y(4)(8)  x(4)(8)(3)  x(4)(8)(2)  x(4)(8)(1)  y(5)(0)  x(5)(0)(3) 
 x(5)(0)(2)  x(5)(0)(1)  y(5)(1)  x(5)(1)(3)  x(5)(1)(2)  x(5)(1)(1)  y(5)(2) 
 x(5)(2)(3)  x(5)(2)(2)  x(5)(2)(1)  y(5)(3)  x(5)(3)(3)  x(5)(3)(2) 
 x(5)(3)(1)  y(5)(4)  x(5)(4)(3)  x(5)(4)(2)  x(5)(4)(1)  y(5)(5)  x(5)(5)(3) 
 x(5)(5)(2)  x(5)(5)(1)  y(5)(6)  x(5)(6)(3)  x(5)(6)(2)  x(5)(6)(1)  y(5)(7) 
 x(5)(7)(3)  x(5)(7)(2)  x(5)(7)(1)  y(5)(8)  x(5)(8)(3)  x(5)(8)(2) 
 x(5)(8)(1)  y(6)(0)  x(6)(0)(3)  x(6)(0)(2)  x(6)(0)(1)  y(6)(1)  x(6)(1)(3) 
 x(6)(1)(2)  x(6)(1)(1)  y(6)(2)  x(6)(2)(3)  x(6)(2)(2)  x(6)(2)(1)  y(6)(3) 
 x(6)(3)(3)  x(6)(3)(2)  x(6)(3)(1)  y(6)(4)  x(6)(4)(3)  x(6)(4)(2) 
 x(6)(4)(1)  y(6)(5)  x(6)(5)(3)  x(6)(5)(2)  x(6)(5)(1)  y(6)(6)  x(6)(6)(3) 
 x(6)(6)(2)  x(6)(6)(1)  y(6)(7)  x(6)(7)(3)  x(6)(7)(2)  x(6)(7)(1)  y(6)(8) 
 x(6)(8)(3)  x(6)(8)(2)  x(6)(8)(1)  y(7)(0)  x(7)(0)(3)  x(7)(0)(2) 
 x(7)(0)(1)  y(7)(1)  x(7)(1)(3)  x(7)(1)(2)  x(7)(1)(1)  y(7)(2)  x(7)(2)(3) 
 x(7)(2)(2)  x(7)(2)(1)  y(7)(3)  x(7)(3)(3)  x(7)(3)(2)  x(7)(3)(1)  y(7)(4) 
 x(7)(4)(3)  x(7)(4)(2)  x(7)(4)(1)  y(7)(5)  x(7)(5)(3)  x(7)(5)(2) 
 x(7)(5)(1)  y(7)(6)  x(7)(6)(3)  x(7)(6)(2)  x(7)(6)(1)  y(7)(7)  x(7)(7)(3) 
 x(7)(7)(2)  x(7)(7)(1)  y(7)(8)  x(7)(8)(3)  x(7)(8)(2)  x(7)(8)(1)  y(8)(0) 
 x(8)(0)(3)  x(8)(0)(2)  x(8)(0)(1)  y(8)(1)  x(8)(1)(3)  x(8)(1)(2) 
 x(8)(1)(1)  y(8)(2)  x(8)(2)(3)  x(8)(2)(2)  x(8)(2)(1)  y(8)(3)  x(8)(3)(3) 
 x(8)(3)(2)  x(8)(3)(1)  y(8)(4)  x(8)(4)(3)  x(8)(4)(2)  x(8)(4)(1)  y(8)(5) 
 x(8)(5)(3)  x(8)(5)(2)  x(8)(5)(1)  y(8)(6)  x(8)(6)(3)  x(8)(6)(2) 
 x(8)(6)(1)  y(8)(7)  x(8)(7)(3)  x(8)(7)(2)  x(8)(7)(1)  y(8)(8)  x(8)(8)(3) 
 x(8)(8)(2)  x(8)(8)(1) 
End
